NAME : portcgen-25-24
COMMENT : portcgen N=25, seed=24
TYPE : TSP
DIMENSION : 25
EDGE_WEIGHT_TYPE : EUC_2D
NODE_COORD_SECTION
1 -185635 240782
2 241646 98255
3 -160281 46587
4 643678 -45141
5 -64008 58592
6 -70339 239967
7 23893 137017
8 135620 -54985
9 74602 222519
10 23470 225772
11 -113761 -384198
12 160813 -299770
13 -148230 -103156
14 163862 233932
15 -184698 -9922
16 -12670 102462
17 37192 289471
18 86481 -432651
19 268223 -15248
20 -32025 -8566
21 69219 -3448
22 -32865 -13794
23 -35903 336572
24 -80790 -226224
25 -7513 167662
